Nb of jobs, Nb of Machines, Time seed, Machine seed, Upper bound, Lower bound
5,10,-1,-1,-1,-1
Times
3,97,56,55,36,13,66,67,54,62
70,7,29,82,56,29,39,16,79,29
97,95,60,61,52,61,69,65,16,89
36,9,72,19,95,36,89,66,89,80
92,54,78,78,18,92,36,43,22,16
Machines
9,4,5,6,8,3,7,1,2,10
3,2,4,8,7,5,6,9,1,10
2,8,10,9,5,7,4,6,1,3
3,1,9,8,6,2,7,5,4,10
6,8,9,3,2,10,7,1,4,5
